Welcome to the CBC MILP Solver 
Version: 2.10.7 
Build Date: Feb 14 2022 

command line - cbc inputs/new_tr/order/jump35_up_right_input.lp sec 1800 solve solu solutions/new_tr/jump35_up_right_input.lp (default strategy 1)
seconds was changed from 1e+100 to 1800
Continuous objective value is 37416.4 - 0.90 seconds
Cgl0002I 244 variables fixed
Cgl0003I 0 fixed, 1 tightened bounds, 516 strengthened rows, 0 substitutions
Cgl0003I 0 fixed, 0 tightened bounds, 81 strengthened rows, 0 substitutions
Cgl0004I processed model has 3250 rows, 1016 columns (1016 integer (980 of which binary)) and 11095 elements
Cutoff increment increased from 1e-05 to 0.9999
Cbc0045I 1 integer variables out of 1016 objects (1016 integer) have cost of 1 - high priority
Cbc0045I branch on satisfied Y create fake objective Y random cost Y
Cbc0038I Initial state - 641 integers unsatisfied sum - 197.489
Cbc0038I Pass   1: (1.61 seconds) suminf.   55.35910 (298) obj. 61873.8 iterations 1951
Cbc0038I Pass   2: (1.69 seconds) suminf.   44.12010 (280) obj. 66399.9 iterations 604
Cbc0038I Pass   3: (1.72 seconds) suminf.   40.55383 (293) obj. 66032.6 iterations 164
Cbc0038I Pass   4: (1.78 seconds) suminf.   35.24160 (272) obj. 66017.4 iterations 392
Cbc0038I Pass   5: (1.80 seconds) suminf.   30.89928 (280) obj. 66118 iterations 146
Cbc0038I Pass   6: (1.81 seconds) suminf.   29.81171 (281) obj. 66139 iterations 52
Cbc0038I Pass   7: (1.84 seconds) suminf.   30.54291 (279) obj. 66105.7 iterations 126
Cbc0038I Pass   8: (1.89 seconds) suminf.   25.21016 (234) obj. 66213.1 iterations 394
Cbc0038I Pass   9: (1.91 seconds) suminf.   23.68877 (233) obj. 66215.9 iterations 122
Cbc0038I Pass  10: (1.96 seconds) suminf.   22.64036 (223) obj. 69454.7 iterations 363
Cbc0038I Pass  11: (1.98 seconds) suminf.   18.86475 (215) obj. 69938.3 iterations 96
Cbc0038I Pass  12: (1.98 seconds) suminf.   18.21686 (219) obj. 69938.2 iterations 4
Cbc0038I Pass  13: (2.01 seconds) suminf.   17.15950 (186) obj. 69632 iterations 181
Cbc0038I Pass  14: (2.02 seconds) suminf.   17.08860 (188) obj. 69632 iterations 18
Cbc0038I Pass  15: (2.05 seconds) suminf.   17.31544 (188) obj. 69632 iterations 167
Cbc0038I Pass  16: (2.06 seconds) suminf.   15.16512 (180) obj. 69632 iterations 50
Cbc0038I Pass  17: (2.09 seconds) suminf.   12.99876 (175) obj. 69632 iterations 170
Cbc0038I Pass  18: (2.09 seconds) suminf.   12.97453 (175) obj. 69632 iterations 16
Cbc0038I Pass  19: (2.12 seconds) suminf.   11.90015 (169) obj. 69632 iterations 168
Cbc0038I Pass  20: (2.13 seconds) suminf.   10.75769 (165) obj. 69632 iterations 67
Cbc0038I Pass  21: (2.17 seconds) suminf.   10.22041 (171) obj. 69632 iterations 238
Cbc0038I Pass  22: (2.18 seconds) suminf.    9.08539 (165) obj. 69600.1 iterations 101
Cbc0038I Pass  23: (2.19 seconds) suminf.    9.35076 (164) obj. 69389.6 iterations 28
Cbc0038I Pass  24: (2.22 seconds) suminf.    8.93371 (159) obj. 67537.5 iterations 166
Cbc0038I Pass  25: (2.22 seconds) suminf.    8.56342 (151) obj. 67257.6 iterations 40
Cbc0038I Pass  26: (2.27 seconds) suminf.    9.74315 (156) obj. 67584 iterations 420
Cbc0038I Pass  27: (2.28 seconds) suminf.    9.74315 (156) obj. 67584 iterations 5
Cbc0038I Pass  28: (2.32 seconds) suminf.    8.03713 (109) obj. 67584 iterations 338
Cbc0038I Pass  29: (2.33 seconds) suminf.    6.19613 (110) obj. 67584 iterations 77
Cbc0038I Pass  30: (2.37 seconds) suminf.    3.97548 (49) obj. 67584 iterations 225
Cbc0038I Pass  31: (2.37 seconds) suminf.    3.61080 (44) obj. 67584 iterations 19
Cbc0038I Pass  32: (2.41 seconds) suminf.    1.32143 (21) obj. 67584 iterations 240
Cbc0038I Pass  33: (2.42 seconds) suminf.    1.32143 (21) obj. 67584 iterations 1
Cbc0038I Pass  34: (2.44 seconds) suminf.    0.00000 (0) obj. 67584 iterations 121
Cbc0038I Solution found of 67584
Cbc0038I Cleaned solution of 67584
Cbc0038I Before mini branch and bound, 225 integers at bound fixed and 0 continuous
Cbc0038I Full problem 3250 rows 1016 columns, reduced to 2680 rows 791 columns - 88 fixed gives 2013, 581 - still too large
Cbc0038I Mini branch and bound did not improve solution (3.00 seconds)
Cbc0038I Round again with cutoff of 64574.5
Cbc0038I Pass  35: (3.00 seconds) suminf.   55.35910 (298) obj. 61873.8 iterations 0
Cbc0038I Pass  36: (3.06 seconds) suminf.   44.41407 (298) obj. 64574.5 iterations 436
Cbc0038I Pass  37: (3.09 seconds) suminf.   40.65221 (293) obj. 64574.5 iterations 144
Cbc0038I Pass  38: (3.12 seconds) suminf.   38.90304 (307) obj. 64574.5 iterations 218
Cbc0038I Pass  39: (3.14 seconds) suminf.   37.51882 (310) obj. 64574.5 iterations 75
Cbc0038I Pass  40: (3.20 seconds) suminf.   32.03042 (259) obj. 64574.5 iterations 428
Cbc0038I Pass  41: (3.21 seconds) suminf.   30.69086 (265) obj. 64574.5 iterations 66
Cbc0038I Pass  42: (3.27 seconds) suminf.   23.56681 (234) obj. 64574.5 iterations 407
Cbc0038I Pass  43: (3.29 seconds) suminf.   23.49516 (240) obj. 64574.5 iterations 109
Cbc0038I Pass  44: (3.34 seconds) suminf.   23.00884 (218) obj. 64574.5 iterations 298
Cbc0038I Pass  45: (3.36 seconds) suminf.   21.15628 (229) obj. 64574.5 iterations 108
Cbc0038I Pass  46: (3.40 seconds) suminf.   23.05333 (208) obj. 64574.5 iterations 296
Cbc0038I Pass  47: (3.41 seconds) suminf.   22.27457 (204) obj. 64574.5 iterations 31
Cbc0038I Pass  48: (3.41 seconds) suminf.   22.85991 (202) obj. 64574.5 iterations 19
Cbc0038I Pass  49: (3.45 seconds) suminf.   19.15661 (194) obj. 64574.5 iterations 231
Cbc0038I Pass  50: (3.48 seconds) suminf.   14.82685 (174) obj. 64574.5 iterations 206
Cbc0038I Pass  51: (3.49 seconds) suminf.   14.64748 (174) obj. 64574.5 iterations 10
Cbc0038I Pass  52: (3.53 seconds) suminf.   16.64127 (171) obj. 64574.5 iterations 320
Cbc0038I Pass  53: (3.54 seconds) suminf.   15.90151 (168) obj. 64574.5 iterations 43
Cbc0038I Pass  54: (3.55 seconds) suminf.   15.53234 (168) obj. 64574.5 iterations 30
Cbc0038I Pass  55: (3.57 seconds) suminf.   11.62494 (161) obj. 64574.5 iterations 149
Cbc0038I Pass  56: (3.59 seconds) suminf.    9.98251 (152) obj. 64574.5 iterations 106
Cbc0038I Pass  57: (3.61 seconds) suminf.   13.50328 (155) obj. 64574.5 iterations 158
Cbc0038I Pass  58: (3.63 seconds) suminf.   11.58179 (155) obj. 64574.5 iterations 125
Cbc0038I Pass  59: (3.66 seconds) suminf.   10.14475 (117) obj. 64574.5 iterations 203
Cbc0038I Pass  60: (3.67 seconds) suminf.   10.14419 (119) obj. 64574.5 iterations 27
Cbc0038I Pass  61: (3.69 seconds) suminf.   10.23982 (123) obj. 64574.5 iterations 152
Cbc0038I Pass  62: (3.70 seconds) suminf.   10.23982 (123) obj. 64574.5 iterations 20
Cbc0038I Pass  63: (3.73 seconds) suminf.    8.85576 (92) obj. 64574.5 iterations 230
Cbc0038I Pass  64: (3.73 seconds) suminf.    8.85576 (92) obj. 64574.5 iterations 24
Cbc0038I Pass  65: (3.77 seconds) suminf.    8.19117 (103) obj. 64574.5 iterations 260
Cbc0038I Pass  66: (3.78 seconds) suminf.    8.38689 (92) obj. 64574.5 iterations 93
Cbc0038I Pass  67: (3.79 seconds) suminf.    8.35577 (87) obj. 64574.5 iterations 94
Cbc0038I Pass  68: (3.80 seconds) suminf.    8.77507 (89) obj. 64574.5 iterations 8
Cbc0038I Pass  69: (3.84 seconds) suminf.    8.56721 (98) obj. 64574.5 iterations 325
Cbc0038I Pass  70: (3.85 seconds) suminf.    8.56721 (98) obj. 64574.5 iterations 3
Cbc0038I Pass  71: (3.86 seconds) suminf.    8.18293 (85) obj. 64574.5 iterations 139
Cbc0038I Pass  72: (3.88 seconds) suminf.    7.08087 (95) obj. 64574.5 iterations 141
Cbc0038I Pass  73: (3.92 seconds) suminf.    9.36800 (76) obj. 64574.5 iterations 315
Cbc0038I Pass  74: (3.93 seconds) suminf.    9.02258 (72) obj. 64574.5 iterations 54
Cbc0038I Pass  75: (3.94 seconds) suminf.    8.16807 (83) obj. 64574.5 iterations 51
Cbc0038I Pass  76: (3.99 seconds) suminf.    7.57852 (70) obj. 64574.5 iterations 364
Cbc0038I Pass  77: (3.99 seconds) suminf.    7.04926 (75) obj. 64574.5 iterations 40
Cbc0038I Pass  78: (4.00 seconds) suminf.    7.04926 (75) obj. 64574.5 iterations 0
Cbc0038I Pass  79: (4.02 seconds) suminf.    4.84118 (45) obj. 64574.5 iterations 205
Cbc0038I Pass  80: (4.03 seconds) suminf.    4.83452 (42) obj. 64574.5 iterations 39
Cbc0038I Pass  81: (4.08 seconds) suminf.    8.33858 (59) obj. 64574.5 iterations 390
Cbc0038I Pass  82: (4.09 seconds) suminf.    5.69830 (68) obj. 64574.5 iterations 67
Cbc0038I Pass  83: (4.10 seconds) suminf.    5.51647 (66) obj. 64574.5 iterations 16
Cbc0038I Pass  84: (4.12 seconds) suminf.    6.09274 (66) obj. 64574.5 iterations 108
Cbc0038I Pass  85: (4.12 seconds) suminf.    5.77358 (68) obj. 64574.5 iterations 25
Cbc0038I Pass  86: (4.16 seconds) suminf.    5.61790 (59) obj. 64574.5 iterations 243
Cbc0038I Pass  87: (4.16 seconds) suminf.    5.14443 (58) obj. 64574.5 iterations 8
Cbc0038I Pass  88: (4.19 seconds) suminf.    6.05967 (60) obj. 64574.5 iterations 178
Cbc0038I Pass  89: (4.21 seconds) suminf.    4.82921 (58) obj. 64574.5 iterations 208
Cbc0038I Pass  90: (4.22 seconds) suminf.    4.42255 (48) obj. 64574.5 iterations 48
Cbc0038I Pass  91: (4.25 seconds) suminf.    9.01942 (48) obj. 64574.5 iterations 184
Cbc0038I Pass  92: (4.27 seconds) suminf.    6.42363 (43) obj. 64574.5 iterations 94
Cbc0038I Pass  93: (4.31 seconds) suminf.    6.59923 (39) obj. 64574.5 iterations 336
Cbc0038I Pass  94: (4.32 seconds) suminf.    4.84204 (38) obj. 64574.5 iterations 31
Cbc0038I Pass  95: (4.34 seconds) suminf.    4.97088 (37) obj. 64574.5 iterations 199
Cbc0038I Pass  96: (4.35 seconds) suminf.    4.82373 (39) obj. 64574.5 iterations 64
Cbc0038I Pass  97: (4.42 seconds) suminf.    2.53657 (15) obj. 64574.5 iterations 528
Cbc0038I Pass  98: (4.43 seconds) suminf.    2.53657 (15) obj. 64574.5 iterations 1
Cbc0038I Pass  99: (4.46 seconds) suminf.    4.54062 (20) obj. 64574.5 iterations 223
Cbc0038I Pass 100: (4.49 seconds) suminf.    3.06669 (12) obj. 64574.5 iterations 200
Cbc0038I Pass 101: (4.51 seconds) suminf.    1.94823 (9) obj. 64574.5 iterations 76
Cbc0038I Pass 102: (4.52 seconds) suminf.    2.42374 (6) obj. 64574.5 iterations 67
Cbc0038I Pass 103: (4.52 seconds) suminf.    0.45424 (1) obj. 64574.5 iterations 38
Cbc0038I Solution found of 64574.5
Cbc0038I Branch and bound needed to clear up 1 general integers
Cbc0038I Full problem 3251 rows 1016 columns, reduced to 0 rows 0 columns
Cbc0038I Cleaned solution of 62464
Cbc0038I Before mini branch and bound, 224 integers at bound fixed and 0 continuous
Cbc0038I Full problem 3250 rows 1016 columns, reduced to 2690 rows 792 columns - 231 fixed gives 1478, 376 - ok now
Cbc0038I Full problem 3250 rows 1016 columns, reduced to 228 rows 72 columns
Cbc0038I Mini branch and bound improved solution from 62464 to 60416 (5.05 seconds)
Cbc0038I Round again with cutoff of 55831.5
Cbc0038I Pass 104: (5.08 seconds) suminf.   56.12162 (298) obj. 55831 iterations 139
Cbc0038I Pass 105: (5.15 seconds) suminf.   48.54653 (318) obj. 55831.5 iterations 488
Cbc0038I Pass 106: (5.17 seconds) suminf.   46.78797 (319) obj. 55831.5 iterations 148
Cbc0038I Pass 107: (5.19 seconds) suminf.   44.44237 (319) obj. 55831.5 iterations 55
Cbc0038I Pass 108: (5.26 seconds) suminf.   41.55268 (297) obj. 55831.5 iterations 535
Cbc0038I Pass 109: (5.31 seconds) suminf.   38.72924 (316) obj. 55831.5 iterations 305
Cbc0038I Pass 110: (5.33 seconds) suminf.   38.16924 (314) obj. 55831.5 iterations 101
Cbc0038I Pass 111: (5.43 seconds) suminf.   31.36452 (284) obj. 55831.5 iterations 670
Cbc0038I Pass 112: (5.44 seconds) suminf.   30.96550 (276) obj. 55831.5 iterations 51
Cbc0038I Pass 113: (5.46 seconds) suminf.   30.81286 (273) obj. 55831.5 iterations 59
Cbc0038I Pass 114: (5.50 seconds) suminf.   27.70056 (250) obj. 55831.5 iterations 293
Cbc0038I Pass 115: (5.52 seconds) suminf.   26.94813 (246) obj. 55831.5 iterations 128
Cbc0038I Pass 116: (5.53 seconds) suminf.   26.60026 (250) obj. 55831.5 iterations 28
Cbc0038I Pass 117: (5.54 seconds) suminf.   26.39215 (246) obj. 55831.5 iterations 34
Cbc0038I Pass 118: (5.55 seconds) suminf.   26.21457 (249) obj. 55831.5 iterations 14
Cbc0038I Pass 119: (5.63 seconds) suminf.   21.13948 (201) obj. 55831.5 iterations 588
Cbc0038I Pass 120: (5.66 seconds) suminf.   17.38114 (208) obj. 55831.5 iterations 201
Cbc0038I Pass 121: (5.71 seconds) suminf.   20.15963 (175) obj. 55831.5 iterations 346
Cbc0038I Pass 122: (5.74 seconds) suminf.   16.23411 (164) obj. 55831.5 iterations 208
Cbc0038I Pass 123: (5.75 seconds) suminf.   15.83429 (166) obj. 55831.5 iterations 71
Cbc0038I Pass 124: (5.78 seconds) suminf.   17.24752 (169) obj. 55831.5 iterations 226
Cbc0038I Pass 125: (5.79 seconds) suminf.   16.11754 (165) obj. 55831.5 iterations 50
Cbc0038I Pass 126: (5.80 seconds) suminf.   14.22169 (162) obj. 55831.5 iterations 55
Cbc0038I Pass 127: (5.82 seconds) suminf.   13.73034 (166) obj. 55831.5 iterations 92
Cbc0038I Pass 128: (5.91 seconds) suminf.   24.04079 (169) obj. 55831.5 iterations 752
Cbc0038I Pass 129: (5.93 seconds) suminf.   18.90792 (159) obj. 55831.5 iterations 144
Cbc0038I Pass 130: (5.94 seconds) suminf.   17.00981 (159) obj. 55831.5 iterations 103
Cbc0038I Pass 131: (5.95 seconds) suminf.   15.03893 (158) obj. 55831.5 iterations 31
Cbc0038I Pass 132: (5.96 seconds) suminf.   14.31608 (153) obj. 55831.5 iterations 29
Cbc0038I Pass 133: (5.98 seconds) suminf.   14.86734 (159) obj. 55831.5 iterations 126
Cbc0038I Pass 134: (5.99 seconds) suminf.   14.63517 (159) obj. 55831.5 iterations 40
Cbc0038I Pass 135: (6.01 seconds) suminf.   10.58641 (153) obj. 55831.5 iterations 134
Cbc0038I Pass 136: (6.01 seconds) suminf.   10.31053 (143) obj. 55831.5 iterations 35
Cbc0038I Pass 137: (6.05 seconds) suminf.    8.77116 (106) obj. 55831.5 iterations 259
Cbc0038I Pass 138: (6.06 seconds) suminf.    6.78863 (98) obj. 55831.5 iterations 71
Cbc0038I Pass 139: (6.07 seconds) suminf.    6.56604 (93) obj. 55831.5 iterations 24
Cbc0038I Pass 140: (6.10 seconds) suminf.    6.61846 (63) obj. 55831.5 iterations 203
Cbc0038I Pass 141: (6.11 seconds) suminf.    2.97914 (50) obj. 55831.5 iterations 88
Cbc0038I Pass 142: (6.14 seconds) suminf.    3.21719 (37) obj. 55831.5 iterations 230
Cbc0038I Pass 143: (6.15 seconds) suminf.    3.21719 (37) obj. 55831.5 iterations 5
Cbc0038I Pass 144: (6.16 seconds) suminf.    3.11062 (35) obj. 55831.5 iterations 157
Cbc0038I Pass 145: (6.18 seconds) suminf.    1.72370 (41) obj. 55831.5 iterations 87
Cbc0038I Pass 146: (6.20 seconds) suminf.    6.76531 (50) obj. 55831.5 iterations 190
Cbc0038I Pass 147: (6.21 seconds) suminf.    3.84364 (45) obj. 55831.5 iterations 48
Cbc0038I Pass 148: (6.22 seconds) suminf.    3.45081 (43) obj. 55831.5 iterations 79
Cbc0038I Pass 149: (6.25 seconds) suminf.    4.63225 (36) obj. 55831.5 iterations 218
Cbc0038I Pass 150: (6.25 seconds) suminf.    4.63225 (36) obj. 55831.5 iterations 2
Cbc0038I Pass 151: (6.33 seconds) suminf.    3.93124 (57) obj. 55831.5 iterations 671
Cbc0038I Pass 152: (6.33 seconds) suminf.    3.93124 (57) obj. 55831.5 iterations 5
Cbc0038I Pass 153: (6.36 seconds) suminf.    4.58943 (33) obj. 55831.5 iterations 192
Cbc0038I Pass 154: (6.36 seconds) suminf.    4.58943 (33) obj. 55831.5 iterations 1
Cbc0038I Pass 155: (6.39 seconds) suminf.    2.28627 (32) obj. 55831.5 iterations 224
Cbc0038I Pass 156: (6.40 seconds) suminf.    1.70797 (36) obj. 55831.5 iterations 53
Cbc0038I Pass 157: (6.42 seconds) suminf.    6.48088 (51) obj. 55831.5 iterations 153
Cbc0038I Pass 158: (6.43 seconds) suminf.    6.31892 (50) obj. 55831.5 iterations 1
Cbc0038I Pass 159: (6.46 seconds) suminf.    2.25149 (36) obj. 55831.5 iterations 253
Cbc0038I Pass 160: (6.46 seconds) suminf.    2.25149 (36) obj. 55831.5 iterations 3
Cbc0038I Pass 161: (6.49 seconds) suminf.    1.70023 (28) obj. 55831.5 iterations 225
Cbc0038I Pass 162: (6.49 seconds) suminf.    1.49621 (29) obj. 55831.5 iterations 24
Cbc0038I Pass 163: (6.52 seconds) suminf.    3.25773 (24) obj. 55831.5 iterations 167
Cbc0038I Pass 164: (6.52 seconds) suminf.    2.05097 (26) obj. 55831.5 iterations 31
Cbc0038I Pass 165: (6.55 seconds) suminf.    1.20665 (14) obj. 55831.5 iterations 96
Cbc0038I Pass 166: (6.58 seconds) suminf.    0.92872 (14) obj. 55831.5 iterations 7
Cbc0038I Pass 167: (6.59 seconds) suminf.    1.01278 (19) obj. 55831.5 iterations 97
Cbc0038I Pass 168: (6.60 seconds) suminf.    1.71275 (24) obj. 55831.5 iterations 77
Cbc0038I Pass 169: (6.62 seconds) suminf.    2.39609 (29) obj. 55831.5 iterations 135
Cbc0038I Pass 170: (6.63 seconds) suminf.    2.15226 (27) obj. 55831.5 iterations 61
Cbc0038I Pass 171: (6.66 seconds) suminf.    1.19029 (43) obj. 55831.5 iterations 190
Cbc0038I Pass 172: (6.66 seconds) suminf.    1.17362 (42) obj. 55831.5 iterations 11
Cbc0038I Pass 173: (6.68 seconds) suminf.    7.24335 (43) obj. 55831.5 iterations 172
Cbc0038I Pass 174: (6.69 seconds) suminf.    6.86449 (41) obj. 55831.5 iterations 7
Cbc0038I Pass 175: (6.70 seconds) suminf.    6.69417 (40) obj. 55831.5 iterations 44
Cbc0038I Pass 176: (6.73 seconds) suminf.    1.52076 (32) obj. 55831.5 iterations 262
Cbc0038I Pass 177: (6.74 seconds) suminf.    1.00732 (18) obj. 55831.5 iterations 117
Cbc0038I Pass 178: (6.76 seconds) suminf.    4.90079 (23) obj. 55831.5 iterations 126
Cbc0038I Pass 179: (6.79 seconds) suminf.    1.38007 (13) obj. 55831.5 iterations 123
Cbc0038I Pass 180: (6.80 seconds) suminf.    0.49163 (1) obj. 55831.5 iterations 47
Cbc0038I Solution found of 55831.5
Cbc0038I Branch and bound needed to clear up 1 general integers
Cbc0038I Full problem 3251 rows 1016 columns, reduced to 0 rows 0 columns
Cbc0038I Cleaned solution of 54272
Cbc0038I Before mini branch and bound, 214 integers at bound fixed and 0 continuous
Cbc0038I Full problem 3250 rows 1016 columns, reduced to 2707 rows 802 columns - 197 fixed gives 1692, 463 - still too large
Cbc0038I Full problem 3250 rows 1016 columns, reduced to 446 rows 141 columns
Cbc0038I Mini branch and bound did not improve solution (7.33 seconds)
Cbc0038I Round again with cutoff of 49239
Cbc0038I Pass 181: (7.39 seconds) suminf.   63.80680 (348) obj. 49239 iterations 292
Cbc0038I Pass 182: (7.49 seconds) suminf.   46.39228 (331) obj. 49239 iterations 658
Cbc0038I Pass 183: (7.53 seconds) suminf.   46.77577 (321) obj. 49239 iterations 193
Cbc0038I Pass 184: (7.56 seconds) suminf.   41.01115 (307) obj. 49239 iterations 206
Cbc0038I Pass 185: (7.59 seconds) suminf.   40.17840 (296) obj. 49239 iterations 110
Cbc0038I Pass 186: (7.59 seconds) suminf.   39.91575 (296) obj. 49239 iterations 29
Cbc0038I Pass 187: (7.67 seconds) suminf.   37.32092 (298) obj. 49239 iterations 531
Cbc0038I Pass 188: (7.70 seconds) suminf.   35.42269 (292) obj. 49239 iterations 161
Cbc0038I Pass 189: (7.78 seconds) suminf.   32.98630 (273) obj. 49239 iterations 508
Cbc0038I Pass 190: (7.80 seconds) suminf.   33.79182 (287) obj. 49239 iterations 137
Cbc0038I Pass 191: (7.85 seconds) suminf.   31.98149 (253) obj. 49239 iterations 353
Cbc0038I Pass 192: (7.88 seconds) suminf.   30.09264 (251) obj. 49239 iterations 169
Cbc0038I Pass 193: (7.95 seconds) suminf.   27.98307 (239) obj. 49239 iterations 445
Cbc0038I Pass 194: (7.98 seconds) suminf.   22.30179 (207) obj. 49239 iterations 222
Cbc0038I Pass 195: (7.99 seconds) suminf.   22.29728 (207) obj. 49239 iterations 15
Cbc0038I Pass 196: (8.03 seconds) suminf.   21.83786 (199) obj. 49239 iterations 313
Cbc0038I Pass 197: (8.06 seconds) suminf.   19.38512 (203) obj. 49239 iterations 152
Cbc0038I Pass 198: (8.08 seconds) suminf.   16.57973 (169) obj. 49239 iterations 148
Cbc0038I Pass 199: (8.09 seconds) suminf.   16.39697 (178) obj. 49239 iterations 30
Cbc0038I Pass 200: (8.13 seconds) suminf.   14.91222 (172) obj. 49239 iterations 269
Cbc0038I Pass 201: (8.14 seconds) suminf.   13.72511 (182) obj. 49239 iterations 57
Cbc0038I Pass 202: (8.19 seconds) suminf.   15.31754 (174) obj. 49239 iterations 334
Cbc0038I Pass 203: (8.20 seconds) suminf.   13.98725 (170) obj. 49239 iterations 52
Cbc0038I Pass 204: (8.24 seconds) suminf.   13.73257 (151) obj. 49239 iterations 245
Cbc0038I Pass 205: (8.25 seconds) suminf.   13.38683 (163) obj. 49239 iterations 51
Cbc0038I Pass 206: (8.28 seconds) suminf.   15.72553 (195) obj. 49239 iterations 244
Cbc0038I Pass 207: (8.29 seconds) suminf.   13.57986 (179) obj. 49239 iterations 73
Cbc0038I Pass 208: (8.33 seconds) suminf.    9.03474 (127) obj. 49239 iterations 269
Cbc0038I Pass 209: (8.33 seconds) suminf.    9.03474 (127) obj. 49239 iterations 0
Cbc0038I Pass 210: (8.37 seconds) suminf.    9.69720 (122) obj. 49239 iterations 275
Cbc0038I Pass 211: (8.38 seconds) suminf.    7.88150 (114) obj. 49239 iterations 86
Cbc0038I Pass 212: (8.42 seconds) suminf.   10.85853 (134) obj. 49239 iterations 264
Cbc0038I Pass 213: (8.44 seconds) suminf.   10.96467 (138) obj. 49239 iterations 83
Cbc0038I Pass 214: (8.47 seconds) suminf.    9.62929 (134) obj. 49239 iterations 174
Cbc0038I Pass 215: (8.49 seconds) suminf.    6.74830 (115) obj. 49239 iterations 154
Cbc0038I Pass 216: (8.50 seconds) suminf.    6.70568 (113) obj. 49239 iterations 35
Cbc0038I Pass 217: (8.61 seconds) suminf.    6.51196 (95) obj. 49239 iterations 987
Cbc0038I Pass 218: (8.61 seconds) suminf.    6.51196 (95) obj. 49239 iterations 2
Cbc0038I Pass 219: (8.64 seconds) suminf.    3.78447 (101) obj. 49239 iterations 170
Cbc0038I Pass 220: (8.64 seconds) suminf.    2.55802 (94) obj. 49239 iterations 26
Cbc0038I Pass 221: (8.68 seconds) suminf.   10.34517 (91) obj. 49239 iterations 311
Cbc0038I Pass 222: (8.71 seconds) suminf.    9.49973 (95) obj. 49239 iterations 159
Cbc0038I Pass 223: (8.71 seconds) suminf.    9.29007 (97) obj. 49239 iterations 38
Cbc0038I Pass 224: (8.76 seconds) suminf.    6.14637 (78) obj. 49239 iterations 320
Cbc0038I Pass 225: (8.77 seconds) suminf.    2.44279 (68) obj. 49239 iterations 134
Cbc0038I Pass 226: (8.78 seconds) suminf.    2.23459 (61) obj. 49239 iterations 49
Cbc0038I Pass 227: (8.83 seconds) suminf.    5.84372 (69) obj. 49239 iterations 461
Cbc0038I Pass 228: (8.84 seconds) suminf.    5.38720 (69) obj. 49239 iterations 101
Cbc0038I Pass 229: (8.87 seconds) suminf.    3.46281 (44) obj. 49239 iterations 171
Cbc0038I Pass 230: (8.87 seconds) suminf.    1.96730 (35) obj. 49239 iterations 28
Cbc0038I Pass 231: (8.94 seconds) suminf.    4.18491 (59) obj. 49239 iterations 523
Cbc0038I Pass 232: (8.97 seconds) suminf.    1.81420 (45) obj. 49239 iterations 182
Cbc0038I Pass 233: (8.98 seconds) suminf.    1.81255 (51) obj. 49239 iterations 9
Cbc0038I Pass 234: (9.10 seconds) suminf.    2.29193 (54) obj. 49239 iterations 992
Cbc0038I Pass 235: (9.13 seconds) suminf.    0.93577 (49) obj. 49239 iterations 201
Cbc0038I Pass 236: (9.27 seconds) suminf.    4.71917 (36) obj. 49239 iterations 1106
Cbc0038I Pass 237: (9.32 seconds) suminf.    1.17641 (57) obj. 49239 iterations 388
Cbc0038I Pass 238: (9.45 seconds) suminf.    7.30235 (53) obj. 49239 iterations 1075
Cbc0038I Pass 239: (9.60 seconds) suminf.    2.42118 (34) obj. 49239 iterations 1091
Cbc0038I Pass 240: (9.68 seconds) suminf.    6.99392 (60) obj. 49239 iterations 601
Cbc0038I Pass 241: (9.69 seconds) suminf.    6.92274 (36) obj. 49239 iterations 54
Cbc0038I Pass 242: (9.81 seconds) suminf.    3.67468 (48) obj. 49239 iterations 935
Cbc0038I Pass 243: (9.81 seconds) suminf.    3.58775 (46) obj. 49239 iterations 9
Cbc0038I Pass 244: (9.89 seconds) suminf.    7.90667 (120) obj. 49239 iterations 689
Cbc0038I Pass 245: (9.94 seconds) suminf.    7.08954 (88) obj. 49239 iterations 353
Cbc0038I Pass 246: (10.04 seconds) suminf.    3.75154 (57) obj. 49239 iterations 828
Cbc0038I Pass 247: (10.04 seconds) suminf.    3.40628 (53) obj. 49239 iterations 11
Cbc0038I Pass 248: (10.09 seconds) suminf.    2.66111 (45) obj. 49239 iterations 410
Cbc0038I Pass 249: (10.14 seconds) suminf.    0.92561 (46) obj. 49239 iterations 389
Cbc0038I Pass 250: (10.25 seconds) suminf.    6.10396 (45) obj. 49239 iterations 888
Cbc0038I Pass 251: (10.36 seconds) suminf.    1.50080 (52) obj. 49239 iterations 797
Cbc0038I Pass 252: (10.45 seconds) suminf.    9.72355 (67) obj. 49239 iterations 729
Cbc0038I Pass 253: (10.45 seconds) suminf.    9.13219 (61) obj. 49239 iterations 37
Cbc0038I Pass 254: (10.47 seconds) suminf.    7.72768 (63) obj. 49239 iterations 129
Cbc0038I Pass 255: (10.51 seconds) suminf.    7.48737 (71) obj. 49239 iterations 226
Cbc0038I Pass 256: (10.54 seconds) suminf.    8.89438 (71) obj. 49239 iterations 273
Cbc0038I Pass 257: (10.56 seconds) suminf.    8.15957 (81) obj. 49239 iterations 157
Cbc0038I Pass 258: (10.57 seconds) suminf.    8.20911 (79) obj. 49239 iterations 25
Cbc0038I Pass 259: (10.65 seconds) suminf.    3.61601 (54) obj. 49239 iterations 603
Cbc0038I Pass 260: (10.67 seconds) suminf.    3.23756 (55) obj. 49239 iterations 95
Cbc0038I Pass 261: (10.77 seconds) suminf.    1.53110 (34) obj. 49239 iterations 670
Cbc0038I Pass 262: (10.78 seconds) suminf.    1.16826 (48) obj. 49239 iterations 78
Cbc0038I Pass 263: (10.85 seconds) suminf.    8.93463 (74) obj. 49239 iterations 602
Cbc0038I Pass 264: (10.89 seconds) suminf.    4.87994 (54) obj. 49239 iterations 238
Cbc0038I Pass 265: (11.00 seconds) suminf.    3.25758 (27) obj. 49239 iterations 763
Cbc0038I Pass 266: (11.13 seconds) suminf.    2.89471 (48) obj. 49239 iterations 1066
Cbc0038I Pass 267: (11.23 seconds) suminf.    1.02914 (37) obj. 49239 iterations 827
Cbc0038I Pass 268: (11.38 seconds) suminf.    3.97902 (47) obj. 49239 iterations 1135
Cbc0038I No solution found this major pass
Cbc0038I After 11.38 seconds - Feasibility pump exiting with objective of 54272 - took 10.06 seconds
Cbc0012I Integer solution of 54272 found by feasibility pump after 0 iterations and 0 nodes (11.38 seconds)
Cbc0038I Full problem 3250 rows 1016 columns, reduced to 2402 rows 664 columns - 191 fixed gives 1511, 378 - ok now
Cbc0038I Full problem 3250 rows 1016 columns, reduced to 152 rows 52 columns
Cbc0031I 31 added rows had average density of 127.25806
Cbc0013I At root node, 31 cuts changed objective from 37497.541 to 38251.531 in 10 passes
Cbc0014I Cut generator 0 (Probing) - 2 row cuts average 3.0 elements, 1 column cuts (1 active)  in 0.063 seconds - new frequency is -100
Cbc0014I Cut generator 1 (Gomory) - 130 row cuts average 574.4 elements, 0 column cuts (0 active)  in 0.357 seconds - new frequency is 1
Cbc0014I Cut generator 2 (Knapsack) - 0 row cuts average 0.0 elements, 0 column cuts (0 active)  in 0.017 seconds - new frequency is -100
Cbc0014I Cut generator 3 (Clique) - 0 row cuts average 0.0 elements, 0 column cuts (0 active)  in 0.014 seconds - new frequency is -100
Cbc0014I Cut generator 4 (MixedIntegerRounding2) - 0 row cuts average 0.0 elements, 0 column cuts (0 active)  in 0.015 seconds - new frequency is -100
Cbc0014I Cut generator 5 (FlowCover) - 0 row cuts average 0.0 elements, 0 column cuts (0 active)  in 0.012 seconds - new frequency is -100
Cbc0014I Cut generator 6 (TwoMirCuts) - 86 row cuts average 34.1 elements, 0 column cuts (0 active)  in 0.155 seconds - new frequency is 1
Cbc0014I Cut generator 7 (ZeroHalf) - 13 row cuts average 16.5 elements, 0 column cuts (0 active)  in 0.298 seconds - new frequency is -100
Cbc0010I After 0 nodes, 1 on tree, 54272 best solution, best possible 38252 (15.84 seconds)
Cbc0038I Full problem 3250 rows 1016 columns, reduced to 2420 rows 664 columns - 184 fixed gives 1438, 346 - ok now
Cbc0038I Full problem 3250 rows 1016 columns, reduced to 85 rows 27 columns
Cbc0038I Full problem 3250 rows 1016 columns, reduced to 2005 rows 545 columns - 172 fixed gives 1135, 260 - ok now
Cbc0038I Full problem 3250 rows 1016 columns, reduced to 75 rows 27 columns
Cbc0010I After 100 nodes, 18 on tree, 54272 best solution, best possible 39112.209 (70.69 seconds)
Cbc0010I After 200 nodes, 25 on tree, 54272 best solution, best possible 39112.209 (138.00 seconds)
Cbc0038I Full problem 3250 rows 1016 columns, reduced to 2423 rows 668 columns - 183 fixed gives 1449, 352 - ok now
Cbc0038I Full problem 3250 rows 1016 columns, reduced to 67 rows 23 columns
Cbc0010I After 300 nodes, 26 on tree, 54272 best solution, best possible 39112.209 (202.82 seconds)
Cbc0010I After 400 nodes, 10 on tree, 54272 best solution, best possible 39112.209 (268.87 seconds)
Cbc0038I Full problem 3250 rows 1016 columns, reduced to 2271 rows 617 columns - 176 fixed gives 1387, 330 - ok now
Cbc0010I After 500 nodes, 10 on tree, 54272 best solution, best possible 39112.209 (317.81 seconds)
Cbc0038I Full problem 3250 rows 1016 columns, reduced to 2056 rows 565 columns - 176 fixed gives 1202, 273 - ok now
Cbc0038I Full problem 3250 rows 1016 columns, reduced to 35 rows 12 columns
Cbc0010I After 600 nodes, 11 on tree, 54272 best solution, best possible 39112.209 (376.28 seconds)
Cbc0038I Full problem 3250 rows 1016 columns, reduced to 2079 rows 565 columns - 170 fixed gives 1208, 278 - ok now
Cbc0010I After 700 nodes, 16 on tree, 54272 best solution, best possible 39112.209 (446.08 seconds)
Cbc0038I Full problem 3250 rows 1016 columns, reduced to 2245 rows 607 columns - 174 fixed gives 1353, 318 - ok now
Cbc0010I After 800 nodes, 19 on tree, 54272 best solution, best possible 39112.209 (512.28 seconds)
Cbc0010I After 900 nodes, 29 on tree, 54272 best solution, best possible 39112.209 (573.68 seconds)
Cbc0038I Full problem 3250 rows 1016 columns, reduced to 1947 rows 532 columns - 159 fixed gives 1191, 268 - ok now
Cbc0010I After 1000 nodes, 36 on tree, 54272 best solution, best possible 39112.209 (636.88 seconds)
Cbc0010I After 1100 nodes, 50 on tree, 54272 best solution, best possible 39112.209 (694.06 seconds)
Cbc0010I After 1200 nodes, 38 on tree, 54272 best solution, best possible 39112.209 (747.30 seconds)
Cbc0038I Full problem 3250 rows 1016 columns, reduced to 2345 rows 649 columns - 186 fixed gives 1364, 334 - ok now
Cbc0010I After 1300 nodes, 33 on tree, 54272 best solution, best possible 39112.209 (803.87 seconds)
Cbc0010I After 1400 nodes, 36 on tree, 54272 best solution, best possible 39112.209 (852.27 seconds)
Cbc0010I After 1500 nodes, 32 on tree, 54272 best solution, best possible 39112.209 (906.41 seconds)
Cbc0010I After 1600 nodes, 35 on tree, 54272 best solution, best possible 39112.209 (953.39 seconds)
Cbc0010I After 1700 nodes, 32 on tree, 54272 best solution, best possible 39112.209 (1005.59 seconds)
Cbc0038I Full problem 3250 rows 1016 columns, reduced to 2041 rows 560 columns - 173 fixed gives 1187, 277 - ok now
Cbc0038I Full problem 3250 rows 1016 columns, reduced to 58 rows 24 columns
Cbc0010I After 1800 nodes, 26 on tree, 54272 best solution, best possible 39112.209 (1066.89 seconds)
Cbc0010I After 1900 nodes, 26 on tree, 54272 best solution, best possible 39112.209 (1121.60 seconds)
Cbc0010I After 2000 nodes, 23 on tree, 54272 best solution, best possible 39112.209 (1166.49 seconds)
Cbc0010I After 2100 nodes, 23 on tree, 54272 best solution, best possible 39112.209 (1222.74 seconds)
Cbc0010I After 2200 nodes, 25 on tree, 54272 best solution, best possible 39112.209 (1277.32 seconds)
Cbc0010I After 2300 nodes, 23 on tree, 54272 best solution, best possible 39112.209 (1330.87 seconds)
Cbc0010I After 2400 nodes, 25 on tree, 54272 best solution, best possible 39112.209 (1384.75 seconds)
Cbc0010I After 2500 nodes, 24 on tree, 54272 best solution, best possible 39112.209 (1439.64 seconds)
Cbc0010I After 2600 nodes, 23 on tree, 54272 best solution, best possible 39112.209 (1502.50 seconds)
Cbc0010I After 2700 nodes, 26 on tree, 54272 best solution, best possible 39112.209 (1556.82 seconds)
Cbc0010I After 2800 nodes, 24 on tree, 54272 best solution, best possible 39112.209 (1611.12 seconds)
Cbc0010I After 2900 nodes, 26 on tree, 54272 best solution, best possible 39112.209 (1663.05 seconds)
Cbc0010I After 3000 nodes, 27 on tree, 54272 best solution, best possible 39112.209 (1717.87 seconds)
Cbc0038I Full problem 3250 rows 1016 columns, reduced to 2247 rows 605 columns - 172 fixed gives 1372, 323 - ok now
Cbc0010I After 3100 nodes, 27 on tree, 54272 best solution, best possible 39112.209 (1774.82 seconds)
Cbc0020I Exiting on maximum time
Cbc0005I Partial search - best objective 54272 (best possible 39112.209), took 6414701 iterations and 3149 nodes (1799.75 seconds)
Cbc0032I Strong branching done 15658 times (1382522 iterations), fathomed 79 nodes and fixed 247 variables
Cbc0035I Maximum depth 352, 0 variables fixed on reduced cost
Cuts at root node changed objective from 37497.5 to 38252
Probing was tried 10 times and created 3 cuts of which 0 were active after adding rounds of cuts (0.063 seconds)
Gomory was tried 451 times and created 685 cuts of which 0 were active after adding rounds of cuts (2.862 seconds)
Knapsack was tried 10 times and created 0 cuts of which 0 were active after adding rounds of cuts (0.017 seconds)
Clique was tried 10 times and created 0 cuts of which 0 were active after adding rounds of cuts (0.014 seconds)
MixedIntegerRounding2 was tried 10 times and created 0 cuts of which 0 were active after adding rounds of cuts (0.015 seconds)
FlowCover was tried 10 times and created 0 cuts of which 0 were active after adding rounds of cuts (0.012 seconds)
TwoMirCuts was tried 451 times and created 10944 cuts of which 0 were active after adding rounds of cuts (1.148 seconds)
ZeroHalf was tried 10 times and created 13 cuts of which 0 were active after adding rounds of cuts (0.298 seconds)

Result - Stopped on time limit

Objective value:                54272.00000000
Lower bound:                    39112.209
Gap:                            0.39
Enumerated nodes:               3149
Total iterations:               6414701
Time (CPU seconds):             1799.92
Time (Wallclock seconds):       1800.13

Total time (CPU seconds):       1799.94   (Wallclock seconds):       1800.15

